NAME : 10_3_3_1_(43).dat
COMMENT : Henke, Speranza, Wäscher, 2015
TYPE : MCVRP
DIMENSION : 11
EDGE_WEIGHT_TYPE : DISTANCE_MATRIX
CAPACITY : 1000
VEHICLES : 3
PRODUCT TYPES : 3
COMPARTMENTS : 3
NODE_COORD_SECTION
1 50 50
2 22.9 58.64
3 60.09 62.48
4 83.52 15.79
5 33.48 20.33
6 15.34 22.78
7 18.3 35.03
8 42.47 87.07
9 84.36 90.77
10 27.53 9.65
11 24.36 35.4
DEMAND_SECTION
1 0 0 0
2 205 0 0
3 0 323 0
4 0 196 0
5 0 0 346
6 252 0 0
7 38 0 0
8 118 0 0
9 125 0 0
10 54 0 0
11 73 0 0
DEPOT_SECTION
1
EOF